InboundTrucks  = 12;
OutboundTrucks = 8;
InboundDoors   = 4;
OutboundDoors  = 4;
ReleaseTime    = [100,86,10,114,111,72,73,68,62,61,16,112];
UnloadTime     = [30,16,22,19,26,13,26,35,24,35,14,27];
LoadTime       = [5,11,25,21,11,10,26,15];
TransferTime   = [| 20,15,0,48,0,33,18,0 | 39,0,13,25,0,24,35,27 | 0,32,12,20,39,16,0,0 | 45,20,0,24,16,0,23,11 | 43,50,28,19,25,0,47,0 | 0,16,0,36,43,15,34,0 | 16,13,27,34,43,29,41,0 | 0,39,12,13,0,0,16,26 | 15,16,45,41,30,19,37,35 | 20,38,44,12,0,29,49,43 | 0,29,38,13,18,41,0,27 | 48,24,0,12,0,41,43,10 |];
